% Escenario 1:
% - 2 plantas (solo térmicas)
% - 2 clientes
% - 3 días
% Se exige G=90% de la demanda; costos y capacidades iguales.

p = 2;
m = 2;
n = 3;

plantNames = ["Termica1", "Termica2"];
clientNames = ["ClienteA", "ClienteB"];

% Costos de producción por MW de cada planta
cost = [30.0, 30.0];

% Capacidad máxima de cada planta por día
capacity = [400, 400];

% Pago por MW de cada cliente
payment = [70.0, 75.0];

% Demanda de cada cliente (filas) vs días (columnas)
demand = array2d(1..m, 1..n, [
  300, 300, 300,  % ClienteA, días 1..3
  100, 150, 200   % ClienteB, días 1..3
]);

% Porcentaje mínimo a cubrir
G = 0.90;

% Umbral para régimen alto (ej. 0.75)
highThreshold = [0.75, 0.75];

% Máx. días consecutivos en alto
maxConsecutiveHigh = [1, 1];
